n = 30
Q1 = [0 0 32 39 0 25 37 0 18 40 0 40 15 0 0 0 0 10 0 10 0 23 5 22 0 0 0 49 7 27; 0 0 0 23 31 0 35 0 0 0 0 0 0 0 35 50 0 35 0 46 26 0 0 0 35 48 10 0 50 28; 0 0 0 7 0 15 0 0 46 0 30 34 0 0 0 32 0 0 0 26 0 0 0 0 0 14 30 0 0 10; 0 0 0 0 0 35 8 0 24 0 0 0 0 0 0 0 0 0 0 19 0 45 0 0 22 24 0 0 0 7; 0 0 0 0 0 0 0 34 39 0 0 43 0 0 0 0 0 0 48 43 22 48 34 0 35 31 0 0 50 0; 0 0 0 0 0 0 0 0 46 36 18 32 0 0 0 0 45 0 0 25 38 35 5 47 45 11 0 40 42 44; 0 0 0 0 0 0 0 0 24 6 22 0 28 0 7 35 0 0 21 47 27 50 29 29 25 0 26 14 0 25; 0 0 0 0 0 0 0 0 15 18 0 0 47 0 0 37 0 34 18 38 0 5 0 0 0 8 42 0 31 0; 0 0 0 0 0 0 0 0 0 7 0 0 29 6 25 0 0 20 0 0 12 49 0 0 13 42 0 0 0 9; 0 0 0 0 0 0 0 0 0 0 0 8 11 0 0 7 47 0 17 37 15 0 0 47 33 0 0 0 0 0; 0 0 0 0 0 0 0 0 0 0 0 38 0 37 44 6 0 0 0 23 0 6 0 34 12 0 0 8 26 12; 0 0 0 0 0 0 0 0 0 0 0 0 0 37 0 0 0 0 17 0 47 0 34 18 48 24 0 0 23 50; 0 0 0 0 0 0 0 0 0 0 0 0 0 19 0 13 0 0 0 0 0 6 44 32 0 43 28 0 22 21; 0 0 0 0 0 0 0 0 0 0 0 0 0 0 16 0 0 0 0 38 12 28 40 14 0 43 0 0 0 0; 0 0 0 0 0 0 0 0 0 0 0 0 0 0 0 0 0 0 9 0 33 0 0 0 6 14 0 31 0 0; 0 0 0 0 0 0 0 0 0 0 0 0 0 0 0 0 0 0 35 18 45 28 0 0 0 0 0 7 0 0; 0 0 0 0 0 0 0 0 0 0 0 0 0 0 0 0 0 0 0 16 0 10 13 0 32 0 0 0 0 0; 0 0 0 0 0 0 0 0 0 0 0 0 0 0 0 0 0 0 12 0 0 0 0 6 28 0 49 0 22 9; 0 0 0 0 0 0 0 0 0 0 0 0 0 0 0 0 0 0 0 0 0 24 0 42 14 31 0 0 0 0; 0 0 0 0 0 0 0 0 0 0 0 0 0 0 0 0 0 0 0 0 37 0 0 0 34 0 0 35 0 22; 0 0 0 0 0 0 0 0 0 0 0 0 0 0 0 0 0 0 0 0 0 28 0 11 14 0 0 0 0 0; 0 0 0 0 0 0 0 0 0 0 0 0 0 0 0 0 0 0 0 0 0 0 16 0 0 0 0 0 0 18; 0 0 0 0 0 0 0 0 0 0 0 0 0 0 0 0 0 0 0 0 0 0 0 28 0 32 0 46 0 0; 0 0 0 0 0 0 0 0 0 0 0 0 0 0 0 0 0 0 0 0 0 0 0 0 0 14 0 0 32 0; 0 0 0 0 0 0 0 0 0 0 0 0 0 0 0 0 0 0 0 0 0 0 0 0 0 44 0 0 0 0; 0 0 0 0 0 0 0 0 0 0 0 0 0 0 0 0 0 0 0 0 0 0 0 0 0 0 0 26 5 7; 0 0 0 0 0 0 0 0 0 0 0 0 0 0 0 0 0 0 0 0 0 0 0 0 0 0 0 0 32 0; 0 0 0 0 0 0 0 0 0 0 0 0 0 0 0 0 0 0 0 0 0 0 0 0 0 0 0 0 12 47; 0 0 0 0 0 0 0 0 0 0 0 0 0 0 0 0 0 0 0 0 0 0 0 0 0 0 0 0 0 36; 0 0 0 0 0 0 0 0 0 0 0 0 0 0 0 0 0 0 0 0 0 0 0 0 0 0 0 0 0 0]
Q2 = [0.0 0.0 14.0 1.0 0.0 17.0 6.0 0.0 39.0 0.0 0.0 4.0 46.0 0.0 0.0 0.0 0.0 46.0 0.0 50.0 0.0 33.0 46.0 42.0 0.0 0.0 0.0 0.0 48.0 11.0; 0.0 0.0 0.0 37.0 0.0 0.0 10.0 0.0 0.0 0.0 0.0 0.0 0.0 0.0 2.0 0.0 0.0 1.0 0.0 4.0 17.0 0.0 0.0 0.0 6.0 1.0 47.0 0.0 0.0 19.0; 0.0 0.0 0.0 48.0 0.0 40.0 0.0 0.0 1.0 0.0 13.0 7.0 0.0 0.0 0.0 16.0 0.0 0.0 0.0 16.0 0.0 0.0 0.0 0.0 0.0 37.0 5.0 0.0 0.0 48.0; 0.0 0.0 0.0 0.0 0.0 8.0 44.0 0.0 46.0 0.0 0.0 0.0 0.0 0.0 0.0 0.0 0.0 0.0 0.0 43.0 0.0 1.0 0.0 0.0 44.0 37.0 0.0 0.0 0.0 44.0; 0.0 0.0 0.0 0.0 0.0 0.0 0.0 5.0 11.0 0.0 0.0 4.0 0.0 0.0 0.0 0.0 0.0 0.0 0.0 1.0 47.0 1.0 15.0 0.0 15.0 2.0 0.0 0.0 0.0 0.0; 0.0 0.0 0.0 0.0 0.0 0.0 0.0 0.0 2.0 7.0 44.0 5.0 0.0 0.0 0.0 0.0 0.0 0.0 0.0 21.0 12.0 7.0 45.0 0.0 0.0 39.0 0.0 8.0 7.0 3.0; 0.0 0.0 0.0 0.0 0.0 0.0 0.0 0.0 37.0 48.0 40.0 0.0 11.0 0.0 45.0 14.0 0.0 0.0 29.0 1.0 11.0 0.0 7.0 17.0 24.0 0.0 0.0 42.0 0.0 24.0; 0.0 0.0 0.0 0.0 0.0 0.0 0.0 0.0 50.0 38.0 0.0 0.0 2.0 0.0 0.0 11.0 0.0 4.0 43.0 4.0 0.0 49.0 0.0 0.0 0.0 47.0 7.0 0.0 5.0 0.0; 0.0 0.0 0.0 0.0 0.0 0.0 0.0 0.0 0.0 46.0 0.0 0.0 5.0 48.0 11.0 0.0 0.0 39.0 0.0 0.0 44.0 1.0 0.0 0.0 45.0 5.0 0.0 0.0 0.0 46.0; 0.0 0.0 0.0 0.0 0.0 0.0 0.0 0.0 0.0 0.0 0.0 44.0 40.0 0.0 0.0 50.0 0.0 0.0 36.0 4.0 40.0 0.0 0.0 1.0 1.0 0.0 0.0 0.0 0.0 0.0; 0.0 0.0 0.0 0.0 0.0 0.0 0.0 0.0 0.0 0.0 0.0 3.0 0.0 9.0 1.0 45.0 0.0 0.0 0.0 33.0 0.0 45.0 0.0 16.0 47.0 0.0 0.0 43.0 22.0 39.0; 0.0 0.0 0.0 0.0 0.0 0.0 0.0 0.0 0.0 0.0 0.0 0.0 0.0 9.0 0.0 0.0 0.0 0.0 49.0 0.0 2.0 0.0 12.0 47.0 0.0 36.0 0.0 0.0 34.0 0.0; 0.0 0.0 0.0 0.0 0.0 0.0 0.0 0.0 0.0 0.0 0.0 0.0 0.0 47.0 0.0 48.0 0.0 0.0 0.0 0.0 0.0 45.0 4.0 7.0 0.0 3.0 13.0 0.0 46.0 45.0; 0.0 0.0 0.0 0.0 0.0 0.0 0.0 0.0 0.0 0.0 0.0 0.0 0.0 0.0 37.0 0.0 0.0 0.0 0.0 1.0 47.0 22.0 1.0 45.0 0.0 3.0 0.0 0.0 0.0 0.0; 0.0 0.0 0.0 0.0 0.0 0.0 0.0 0.0 0.0 0.0 0.0 0.0 0.0 0.0 0.0 0.0 0.0 0.0 50.0 0.0 3.0 0.0 0.0 0.0 50.0 38.0 0.0 6.0 0.0 0.0; 0.0 0.0 0.0 0.0 0.0 0.0 0.0 0.0 0.0 0.0 0.0 0.0 0.0 0.0 0.0 0.0 0.0 0.0 13.0 34.0 0.0 22.0 0.0 0.0 0.0 0.0 0.0 50.0 0.0 0.0; 0.0 0.0 0.0 0.0 0.0 0.0 0.0 0.0 0.0 0.0 0.0 0.0 0.0 0.0 0.0 0.0 0.0 0.0 0.0 39.0 0.0 47.0 50.0 0.0 6.0 0.0 0.0 0.0 0.0 0.0; 0.0 0.0 0.0 0.0 0.0 0.0 0.0 0.0 0.0 0.0 0.0 0.0 0.0 0.0 0.0 0.0 0.0 0.0 45.0 0.0 0.0 0.0 0.0 47.0 20.0 0.0 1.0 0.0 41.0 46.0; 0.0 0.0 0.0 0.0 0.0 0.0 0.0 0.0 0.0 0.0 0.0 0.0 0.0 0.0 0.0 0.0 0.0 0.0 0.0 0.0 0.0 41.0 0.0 5.0 43.0 4.0 0.0 0.0 0.0 0.0; 0.0 0.0 0.0 0.0 0.0 0.0 0.0 0.0 0.0 0.0 0.0 0.0 0.0 0.0 0.0 0.0 0.0 0.0 0.0 0.0 4.0 0.0 0.0 0.0 13.0 0.0 0.0 5.0 0.0 42.0; 0.0 0.0 0.0 0.0 0.0 0.0 0.0 0.0 0.0 0.0 0.0 0.0 0.0 0.0 0.0 0.0 0.0 0.0 0.0 0.0 0.0 3.0 0.0 45.0 38.0 0.0 0.0 0.0 0.0 0.0; 0.0 0.0 0.0 0.0 0.0 0.0 0.0 0.0 0.0 0.0 0.0 0.0 0.0 0.0 0.0 0.0 0.0 0.0 0.0 0.0 0.0 0.0 44.0 0.0 0.0 0.0 0.0 0.0 0.0 39.0; 0.0 0.0 0.0 0.0 0.0 0.0 0.0 0.0 0.0 0.0 0.0 0.0 0.0 0.0 0.0 0.0 0.0 0.0 0.0 0.0 0.0 0.0 0.0 2.0 0.0 17.0 0.0 2.0 0.0 0.0; 0.0 0.0 0.0 0.0 0.0 0.0 0.0 0.0 0.0 0.0 0.0 0.0 0.0 0.0 0.0 0.0 0.0 0.0 0.0 0.0 0.0 0.0 0.0 0.0 0.0 45.0 0.0 0.0 4.0 0.0; 0.0 0.0 0.0 0.0 0.0 0.0 0.0 0.0 0.0 0.0 0.0 0.0 0.0 0.0 0.0 0.0 0.0 0.0 0.0 0.0 0.0 0.0 0.0 0.0 0.0 5.0 0.0 0.0 0.0 0.0; 0.0 0.0 0.0 0.0 0.0 0.0 0.0 0.0 0.0 0.0 0.0 0.0 0.0 0.0 0.0 0.0 0.0 0.0 0.0 0.0 0.0 0.0 0.0 0.0 0.0 0.0 0.0 23.0 46.0 50.0; 0.0 0.0 0.0 0.0 0.0 0.0 0.0 0.0 0.0 0.0 0.0 0.0 0.0 0.0 0.0 0.0 0.0 0.0 0.0 0.0 0.0 0.0 0.0 0.0 0.0 0.0 0.0 0.0 4.0 0.0; 0.0 0.0 0.0 0.0 0.0 0.0 0.0 0.0 0.0 0.0 0.0 0.0 0.0 0.0 0.0 0.0 0.0 0.0 0.0 0.0 0.0 0.0 0.0 0.0 0.0 0.0 0.0 0.0 50.0 1.0; 0.0 0.0 0.0 0.0 0.0 0.0 0.0 0.0 0.0 0.0 0.0 0.0 0.0 0.0 0.0 0.0 0.0 0.0 0.0 0.0 0.0 0.0 0.0 0.0 0.0 0.0 0.0 0.0 0.0 6.0; 0.0 0.0 0.0 0.0 0.0 0.0 0.0 0.0 0.0 0.0 0.0 0.0 0.0 0.0 0.0 0.0 0.0 0.0 0.0 0.0 0.0 0.0 0.0 0.0 0.0 0.0 0.0 0.0 0.0 0.0]
Q3 = [0 70 19 27 70 20 4 70 6 15 70 20 7 70 70 70 70 13 70 9 70 13 16 4 70 70 70 9 0 3; 0 0 70 2 69 70 20 70 70 70 70 70 70 70 9 17 70 29 70 14 18 70 70 70 0 4 13 70 16 23; 0 0 0 0 70 10 70 70 18 70 1 21 70 70 70 5 70 70 70 4 70 70 70 70 70 4 34 70 70 7; 0 0 0 0 70 6 12 70 0 70 70 70 70 70 70 70 70 70 70 2 70 15 70 70 3 7 70 70 70 7; 0 0 0 0 0 70 70 14 7 70 70 21 70 70 70 70 70 70 15 15 0 13 7 70 8 48 70 70 19 70; 0 0 0 0 0 0 70 70 7 13 5 11 70 70 70 70 21 70 70 16 0 25 11 2 9 12 70 22 15 5; 0 0 0 0 0 0 0 70 2 0 1 70 10 70 12 15 70 70 0 2 32 2 12 17 0 70 56 5 70 19; 0 0 0 0 0 0 0 0 4 9 70 70 8 70 70 17 70 16 6 27 70 10 70 70 70 0 13 70 10 70; 0 0 0 0 0 0 0 0 0 1 70 70 41 16 6 70 70 6 70 70 0 11 70 70 0 11 70 70 70 2; 0 0 0 0 0 0 0 0 0 0 70 17 11 70 70 2 21 70 17 10 9 70 70 16 66 70 70 70 70 70; 0 0 0 0 0 0 0 0 0 0 0 27 70 20 10 8 70 70 70 9 70 2 70 18 8 70 70 19 0 13; 0 0 0 0 0 0 0 0 0 0 0 0 70 2 70 70 70 70 0 70 2 70 21 0 15 9 70 70 8 3; 0 0 0 0 0 0 0 0 0 0 0 0 0 3 70 1 70 70 70 70 70 8 20 29 70 0 0 70 0 1; 0 0 0 0 0 0 0 0 0 0 0 0 0 0 6 70 70 70 70 25 9 11 27 7 70 16 70 70 70 70; 0 0 0 0 0 0 0 0 0 0 0 0 0 0 0 70 70 70 11 70 6 70 70 70 2 11 70 29 70 70; 0 0 0 0 0 0 0 0 0 0 0 0 0 0 0 0 70 70 10 11 15 5 70 70 70 70 70 1 70 70; 0 0 0 0 0 0 0 0 0 0 0 0 0 0 0 0 0 70 70 14 70 12 7 70 1 70 70 70 70 70; 0 0 0 0 0 0 0 0 0 0 0 0 0 0 0 0 0 0 12 70 70 70 70 15 9 70 2 70 7 8; 0 0 0 0 0 0 0 0 0 0 0 0 0 0 0 0 0 0 0 70 70 3 70 11 10 34 70 70 70 70; 0 0 0 0 0 0 0 0 0 0 0 0 0 0 0 0 0 0 0 0 12 70 70 70 21 70 70 12 70 0; 0 0 0 0 0 0 0 0 0 0 0 0 0 0 0 0 0 0 0 0 0 67 70 11 16 70 70 70 70 70; 0 0 0 0 0 0 0 0 0 0 0 0 0 0 0 0 0 0 0 0 0 0 6 70 70 70 70 70 70 11; 0 0 0 0 0 0 0 0 0 0 0 0 0 0 0 0 0 0 0 0 0 0 0 45 70 3 70 21 70 70; 0 0 0 0 0 0 0 0 0 0 0 0 0 0 0 0 0 0 0 0 0 0 0 0 70 0 70 70 10 70; 0 0 0 0 0 0 0 0 0 0 0 0 0 0 0 0 0 0 0 0 0 0 0 0 0 0 70 70 70 70; 0 0 0 0 0 0 0 0 0 0 0 0 0 0 0 0 0 0 0 0 0 0 0 0 0 0 70 9 15 0; 0 0 0 0 0 0 0 0 0 0 0 0 0 0 0 0 0 0 0 0 0 0 0 0 0 0 0 70 8 70; 0 0 0 0 0 0 0 0 0 0 0 0 0 0 0 0 0 0 0 0 0 0 0 0 0 0 0 0 8 6; 0 0 0 0 0 0 0 0 0 0 0 0 0 0 0 0 0 0 0 0 0 0 0 0 0 0 0 0 0 6; 0 0 0 0 0 0 0 0 0 0 0 0 0 0 0 0 0 0 0 0 0 0 0 0 0 0 0 0 0 0]
